
Gurobi 8.1.0 (mac64, Python) logging started Mon Jun 10 17:58:59 2019

Academic license - for non-commercial use only
Parameter OutputFlag unchanged
   Value: 1  Min: 0  Max: 1  Default: 1

Gurobi 8.1.0 (mac64, Python) logging started Mon Jun 10 17:59:08 2019

Academic license - for non-commercial use only
Parameter OutputFlag unchanged
   Value: 1  Min: 0  Max: 1  Default: 1

Gurobi 8.1.0 (mac64, Python) logging started Mon Jun 10 17:59:27 2019

Academic license - for non-commercial use only
Parameter OutputFlag unchanged
   Value: 1  Min: 0  Max: 1  Default: 1

Gurobi 8.1.0 (mac64, Python) logging started Mon Jun 10 18:05:30 2019

Academic license - for non-commercial use only
Parameter OutputFlag unchanged
   Value: 1  Min: 0  Max: 1  Default: 1
Optimize a model with 34 rows, 81 columns and 576 nonzeros
Variable types: 0 continuous, 81 integer (81 binary)
Coefficient statistics:
  Matrix range     [1e+00, 9e+00]
  Objective range  [0e+00, 0e+00]
  Bounds range     [1e+00, 1e+00]
  RHS range        [1e+00, 2e+01]
Presolve removed 8 rows and 14 columns
Presolve time: 0.01s
Presolved: 26 rows, 67 columns, 302 nonzeros
Variable types: 0 continuous, 67 integer (67 binary)

Root relaxation: objective 0.000000e+00, 46 iterations, 0.00 seconds

    Nodes    |    Current Node    |     Objective Bounds      |     Work
 Expl Unexpl |  Obj  Depth IntInf | Incumbent    BestBd   Gap | It/Node Time

     0     0    0.00000    0   13          -    0.00000      -     -    0s
     0     0    0.00000    0   12          -    0.00000      -     -    0s
H    0     0                       0.0000000    0.00000  0.00%     -    0s

Cutting planes:
  Cover: 7
  Clique: 2
  MIR: 1

Explored 1 nodes (158 simplex iterations) in 0.03 seconds
Thread count was 8 (of 8 available processors)

Solution count 1: 0 

Optimal solution found (tolerance 1.00e-04)
Best objective 0.000000000000e+00, best bound 0.000000000000e+00, gap 0.0000%

Gurobi 8.1.0 (mac64, Python) logging started Mon Jun 10 18:07:36 2019

Academic license - for non-commercial use only

Gurobi 8.1.0 (mac64, Python) logging started Mon Jun 10 18:07:47 2019

Academic license - for non-commercial use only
